g3 1 1 0	# problem unknown
 16 14 1 0 10 	# vars, constraints, objectives, ranges, eqns
 9 1 0 0 0 0	# nonlinear constrs, objs; ccons: lin, nonlin, nd, nzlb
 0 0	# network constraints: nonlinear, linear
 12 13 4 	# nonlinear vars in constraints, objectives, both
 0 0 0 1	# linear network variables; functions; arith, flags
 0 0 0 0 0 	# discrete variables: binary, integer, nonlinear (b,c,o)
 59 6 	# nonzeros in Jacobian, obj. gradient
 0 0	# max name lengths: constraints, variables
 0 0 0 0 0	# common exprs: b,c,o,c1,o1
S1 2 homotopy_L1_lb_id
11 1
13 2
S0 2 homotopy_L1_slack_id
14 1
15 2
S1 2 homotopy_L1_ub_id
10 1
12 2
S4 2 homotopy_destination
0 2300
12 2.5
S4 2 homotopy_origin
0 2100
12 1.8
S0 2 homotopy_var_id
0 2
12 1
C0
o0
o2
n-1
o2
v1
v5
o2
o2
n-100
o3
o2
o2
v9
v5
v6
n100
v0
C1
o54
3
o2
n-1
o2
v1
v6
o2
o2
n-100
o3
o2
o2
v9
v5
v6
n100
v0
o2
o2
n-100
o3
o2
o2
v10
v6
v7
n100
v0
C2
o54
4
o2
o2
n200
o3
o2
o2
v9
v5
v6
n100
v0
o2
o2
n-200
o3
o2
o2
v10
v6
v7
n100
v0
o2
o2
n-200
o3
o2
o2
v11
v7
v3
n200
v0
o2
n-1
o2
v1
v7
C3
o0
o2
n-1
o2
v1
v2
o2
o2
n200
o3
o2
o2
v10
v6
v7
n100
v0
C4
o0
o2
n-1
o2
v1
v8
o2
o2
n300
o3
o2
o2
v11
v7
v3
n200
v0
C5
o54
3
o2
o2
n100
o3
o2
o2
v10
v6
v7
n100
v0
o2
o2
n-100
o3
o2
o2
v11
v7
v3
n200
v0
o2
n-1
o2
v1
v3
C6
o2
n-16599000.0
o44
o3
n-6666.7
o0
v4
n273.15
C7
o2
n-7211700000.0
o44
o3
n-8333.3
o0
v4
n273.15
C8
o2
n-26745000000000.0
o44
o3
n-11111
o0
v4
n273.15
C9
n0
C10
n0
C11
n0
C12
n0
C13
n0
O0 0
o54
5
o0
o2
n-1
o2
o2
n1143.38
v1
v3
o2
n-1
o2
o2
n25.92
v1
v2
o2
v12
v12
o2
n-1
o2
v12
v12
o2
v0
v0
o2
n-1
o2
v0
v0
x10
0 2105
1 5
4 90
9 0.1
10 0.1
11 0.1
12 1.8275
13 4
14 1
15 1
r
4 0.0
4 0.0
4 0.0
4 0.0
4 0.0
4 0.0
4 0.0
4 0.0
4 0.0
4 0.0
2 0.0
2 0.0
2 0.0
2 0.0
b
0 1800 2600
2 0
0 0 1
0 0 1
0 70 100
0 0 1
0 0 1
0 0 1
0 0 1
3
3
3
0 1 3
0 3 6
2 0
2 0
k15
8
15
16
19
22
25
30
35
36
40
45
49
53
55
57
J0 6
12 1
0 0
1 0
5 0
6 0
9 0
J1 8
13 1
0 0
1 0
5 0
6 0
7 0
9 0
10 0
J2 9
0 0
1 0
5 0
6 0
7 0
3 0
9 0
10 0
11 0
J3 6
0 0
1 0
6 0
7 0
2 0
10 0
J4 6
0 0
1 0
7 0
8 0
3 0
11 0
J5 7
0 0
1 0
6 0
7 0
3 0
10 0
11 0
J6 2
9 10.0
4 0
J7 2
10 10.0
4 0
J8 2
11 10.0
4 0
J9 3
12 1
13 1
1 -1
J10 2
12 -1
14 1
J11 2
12 1
14 1
J12 2
0 -1
15 1
J13 2
0 1
15 1
G0 6
0 0
1 0
2 0
3 0
12 76.23
13 114.34
